NAME : morphed18-2-29
COMMENT : Generated using the function morphInstances from the R-package netgen (Bossek,2015) - Number of clusters: 2 Alpha: 0.5
TYPE : TSP
DIMENSION : 18
EDGE_WEIGHT_TYPE : EUC_2D
NODE_COORD_SECTION
1 43.0188730892 85.2879789305
2 21.8439940289 26.6880298398
3 11.6299181893 33.4001632927
4 26.0904228007 35.605260461
5 70.581396803 97.9429959559
6 42.1445206268 96.8184681917
7 85.1663460051 66.7671054044
8 92.1949218649 46.8405922049
9 13.7679567595 29.2493860077
10 51.4969764404 90.3449351664
11 95.979096778 69.4886326185
12 34.7249046471 12.6768614046
13 26.5138826805 27.8593393292
14 49.180075588 8.4623514167
15 17.6650187784 6.2695049829
16 82.7174822762 72.5645021853
17 75.0570119831 63.9810284978
18 31.4447552069 7.3700288786
EOF
